200
1000
396
395
394
394
394
394
394
394
393
393
393
392
392
392
391
389
389
388
387
387
386
385
384
384
383
382
382
380
380
380
379
379
379
377
377
377
377
376
376
376
374
374
371
370
370
369
369
368
368
368
367
367
366
362
362
361
361
360
360
359
359
359
359
358
357
357
356
356
356
355
355
355
355
353
352
352
351
351
351
350
350
349
349
349
348
347
346
345
345
345
344
344
343
343
343
342
342
342
341
338
337
337
336
336
336
335
334
333
333
332
331
330
330
328
327
326
326
326
325
325
324
323
323
321
321
320
319
319
318
318
317
316
314
314
313
313
312
311
311
310
310
308
307
307
304
303
302
301
300
296
296
294
293
293
293
292
292
291
291
290
289
289
289
288
288
287
286
285
285
284
283
283
283
282
282
280
280
280
280
279
279
279
278
278
276
275
274
273
273
272
271
270
270
269
268
267
267
267
266
266
